data;

param n := 13;


param B := 9;

param p :=
1	6
2	5
3	2
4	1
5	2
6	1
7	5
8	4
9	4
10	6
11	6
12	6
13	6;

param w :=
1	6
2	3
3	2
4	1
5	2
6	3
7	4
8	3
9	6
10	2
11	7
12	6
13	9;

